data/lp_files/pEFS/60_2.lp
\ Model foo
\ LP format - for model browsing. Use MPS format to capture full model detail.
Minimize
  z
Subject To
 allocateEach[1]: x[1,1] + x[2,1] + x[3,1] = 1
 allocateEach[2]: x[1,2] + x[2,2] + x[3,2] = 1
 allocateEach[3]: x[1,3] + x[2,3] + x[3,3] = 1
 allocateEach[4]: x[1,4] + x[2,4] + x[3,4] = 1
 allocateEach[5]: x[1,5] + x[2,5] + x[3,5] = 1
 allocateEach[6]: x[1,6] + x[2,6] + x[3,6] = 1
 allocateEach[7]: x[1,7] + x[2,7] + x[3,7] = 1
 allocateEach[8]: x[1,8] + x[2,8] + x[3,8] = 1
 allocateEach[9]: x[1,9] + x[2,9] + x[3,9] = 1
 allocateEach[10]: x[1,10] + x[2,10] + x[3,10] = 1
 allocateEach[11]: x[1,11] + x[2,11] + x[3,11] = 1
 allocateEach[12]: x[1,12] + x[2,12] + x[3,12] = 1
 allocateEach[13]: x[1,13] + x[2,13] + x[3,13] = 1
 allocateEach[14]: x[1,14] + x[2,14] + x[3,14] = 1
 allocateEach[15]: x[1,15] + x[2,15] + x[3,15] = 1
 allocateEach[16]: x[1,16] + x[2,16] + x[3,16] = 1
 allocateEach[17]: x[1,17] + x[2,17] + x[3,17] = 1
 allocateEach[18]: x[1,18] + x[2,18] + x[3,18] = 1
 allocateEach[19]: x[1,19] + x[2,19] + x[3,19] = 1
 allocateEach[20]: x[1,20] + x[2,20] + x[3,20] = 1
 allocateAllCash: cashProportion[1] + cashProportion[2] + cashProportion[3]
   = 1
 findWorstP[1,2]: z + 0.0154717331435467 cashProportion[1]
   - 0.0154717331435467 cashProportion[2] + 0.0324596961351611 x[1,1]
   + 0.010159771430929 x[1,2] + 0.0202989138843333 x[1,3]
   + 0.0861466101432683 x[1,4] + 0.1004218625903807 x[1,5]
   + 0.0867757939577725 x[1,6] + 0.0547183628843436 x[1,7]
   + 0.0822167899248074 x[1,8] + 0.00434239976895545 x[1,9]
   + 0.0509123165310311 x[1,10] + 0.0714897216119483 x[1,11]
   + 0.0402987075945581 x[1,12] + 0.00396076368474796 x[1,13]
   + 6.3949830326659853e-04 x[1,14] + 0.00958216 x[1,15]
   + 0.097967014264938 x[1,16] + 0.0173283411207724 x[1,17]
   + 0.0747903580159049 x[1,18] + 0.0515930727893472 x[1,19]
   + 0.0884261121597508 x[1,20] - 0.0324596961351611 x[2,1]
   - 0.010159771430929 x[2,2] - 0.0202989138843333 x[2,3]
   - 0.0861466101432683 x[2,4] - 0.1004218625903807 x[2,5]
   - 0.0867757939577725 x[2,6] - 0.0547183628843436 x[2,7]
   - 0.0822167899248074 x[2,8] - 0.00434239976895545 x[2,9]
   - 0.0509123165310311 x[2,10] - 0.0714897216119483 x[2,11]
   - 0.0402987075945581 x[2,12] - 0.00396076368474796 x[2,13]
   - 6.3949830326659853e-04 x[2,14] - 0.00958216 x[2,15]
   - 0.097967014264938 x[2,16] - 0.0173283411207724 x[2,17]
   - 0.0747903580159049 x[2,18] - 0.0515930727893472 x[2,19]
   - 0.0884261121597508 x[2,20] >= 0
 findWorstP[1,3]: z + 0.0154717331435467 cashProportion[1]
   - 0.0154717331435467 cashProportion[3] + 0.0324596961351611 x[1,1]
   + 0.010159771430929 x[1,2] + 0.0202989138843333 x[1,3]
   + 0.0861466101432683 x[1,4] + 0.1004218625903807 x[1,5]
   + 0.0867757939577725 x[1,6] + 0.0547183628843436 x[1,7]
   + 0.0822167899248074 x[1,8] + 0.00434239976895545 x[1,9]
   + 0.0509123165310311 x[1,10] + 0.0714897216119483 x[1,11]
   + 0.0402987075945581 x[1,12] + 0.00396076368474796 x[1,13]
   + 6.3949830326659853e-04 x[1,14] + 0.00958216 x[1,15]
   + 0.097967014264938 x[1,16] + 0.0173283411207724 x[1,17]
   + 0.0747903580159049 x[1,18] + 0.0515930727893472 x[1,19]
   + 0.0884261121597508 x[1,20] - 0.0324596961351611 x[3,1]
   - 0.010159771430929 x[3,2] - 0.0202989138843333 x[3,3]
   - 0.0861466101432683 x[3,4] - 0.1004218625903807 x[3,5]
   - 0.0867757939577725 x[3,6] - 0.0547183628843436 x[3,7]
   - 0.0822167899248074 x[3,8] - 0.00434239976895545 x[3,9]
   - 0.0509123165310311 x[3,10] - 0.0714897216119483 x[3,11]
   - 0.0402987075945581 x[3,12] - 0.00396076368474796 x[3,13]
   - 6.3949830326659853e-04 x[3,14] - 0.00958216 x[3,15]
   - 0.097967014264938 x[3,16] - 0.0173283411207724 x[3,17]
   - 0.0747903580159049 x[3,18] - 0.0515930727893472 x[3,19]
   - 0.0884261121597508 x[3,20] >= 0
 findWorstP[2,1]: z - 0.016640965619765 cashProportion[1]
   + 0.016640965619765 cashProportion[2] - 0.0482920822285581 x[1,1]
   - 8.87518e-05 x[1,2] - 0.0916695326107456 x[1,3]
   - 0.00687826578950288 x[1,4] - 0.0557916107345322 x[1,5]
   - 0.0886630648221081 x[1,6] - 0.00262927256792287 x[1,7]
   - 9.0970612054715487e-04 x[1,8] - 0.08215090027624 x[1,9]
   - 0.1105292936464793 x[1,10] - 0.00351679073431034 x[1,11]
   - 0.0978599718212982 x[1,12] - 0.0709459834255982 x[1,13]
   - 0.00285115210951974 x[1,14] - 0.0837595269528173 x[1,15]
   - 0.0524966995418187 x[1,16] - 0.0733422824748444 x[1,17]
   - 0.0385626643295355 x[1,18] - 0.0187599152420151 x[1,19]
   - 0.0536615671352023 x[1,20] + 0.0482920822285581 x[2,1]
   + 8.87518e-05 x[2,2] + 0.0916695326107456 x[2,3]
   + 0.00687826578950288 x[2,4] + 0.0557916107345322 x[2,5]
   + 0.0886630648221081 x[2,6] + 0.00262927256792287 x[2,7]
   + 9.0970612054715487e-04 x[2,8] + 0.08215090027624 x[2,9]
   + 0.1105292936464793 x[2,10] + 0.00351679073431034 x[2,11]
   + 0.0978599718212982 x[2,12] + 0.0709459834255982 x[2,13]
   + 0.00285115210951974 x[2,14] + 0.0837595269528173 x[2,15]
   + 0.0524966995418187 x[2,16] + 0.0733422824748444 x[2,17]
   + 0.0385626643295355 x[2,18] + 0.0187599152420151 x[2,19]
   + 0.0536615671352023 x[2,20] >= 0
 findWorstP[2,3]: z + 0.016640965619765 cashProportion[2]
   - 0.016640965619765 cashProportion[3] + 0.0482920822285581 x[2,1]
   + 8.87518e-05 x[2,2] + 0.0916695326107456 x[2,3]
   + 0.00687826578950288 x[2,4] + 0.0557916107345322 x[2,5]
   + 0.0886630648221081 x[2,6] + 0.00262927256792287 x[2,7]
   + 9.0970612054715487e-04 x[2,8] + 0.08215090027624 x[2,9]
   + 0.1105292936464793 x[2,10] + 0.00351679073431034 x[2,11]
   + 0.0978599718212982 x[2,12] + 0.0709459834255982 x[2,13]
   + 0.00285115210951974 x[2,14] + 0.0837595269528173 x[2,15]
   + 0.0524966995418187 x[2,16] + 0.0733422824748444 x[2,17]
   + 0.0385626643295355 x[2,18] + 0.0187599152420151 x[2,19]
   + 0.0536615671352023 x[2,20] - 0.0482920822285581 x[3,1]
   - 8.87518e-05 x[3,2] - 0.0916695326107456 x[3,3]
   - 0.00687826578950288 x[3,4] - 0.0557916107345322 x[3,5]
   - 0.0886630648221081 x[3,6] - 0.00262927256792287 x[3,7]
   - 9.0970612054715487e-04 x[3,8] - 0.08215090027624 x[3,9]
   - 0.1105292936464793 x[3,10] - 0.00351679073431034 x[3,11]
   - 0.0978599718212982 x[3,12] - 0.0709459834255982 x[3,13]
   - 0.00285115210951974 x[3,14] - 0.0837595269528173 x[3,15]
   - 0.0524966995418187 x[3,16] - 0.0733422824748444 x[3,17]
   - 0.0385626643295355 x[3,18] - 0.0187599152420151 x[3,19]
   - 0.0536615671352023 x[3,20] >= 0
 findWorstP[3,1]: z - 0.0124987501249875 cashProportion[1]
   + 0.0124987501249875 cashProportion[3] - 0.0661017231610172 x[1,1]
   - 0.0216561677165617 x[1,2] - 0.03997100289971 x[1,3]
   - 0.0556527680565277 x[1,4] - 0.0795253807952538 x[1,5]
   - 0.0201896477018965 x[1,6] - 0.036354697863547 x[1,7]
   - 0.0204146252041463 x[1,8] - 0.0752674732526747 x[1,9]
   - 0.0478702129787021 x[1,10] - 0.0472536079725361 x[1,11]
   - 0.0196313701963137 x[1,12] - 0.0472952704729527 x[1,13]
   - 0.0621937806219378 x[1,14] - 0.0780505282805053 x[1,15]
   - 0.0754257907542579 x[1,16] - 0.0591524180915242 x[1,17]
   - 0.0354964503549645 x[1,18] - 0.0617521581175216 x[1,19]
   - 0.0382461753824618 x[1,20] + 0.0661017231610172 x[3,1]
   + 0.0216561677165617 x[3,2] + 0.03997100289971 x[3,3]
   + 0.0556527680565277 x[3,4] + 0.0795253807952538 x[3,5]
   + 0.0201896477018965 x[3,6] + 0.036354697863547 x[3,7]
   + 0.0204146252041463 x[3,8] + 0.0752674732526747 x[3,9]
   + 0.0478702129787021 x[3,10] + 0.0472536079725361 x[3,11]
   + 0.0196313701963137 x[3,12] + 0.0472952704729527 x[3,13]
   + 0.0621937806219378 x[3,14] + 0.0780505282805053 x[3,15]
   + 0.0754257907542579 x[3,16] + 0.0591524180915242 x[3,17]
   + 0.0354964503549645 x[3,18] + 0.0617521581175216 x[3,19]
   + 0.0382461753824618 x[3,20] >= 0
 findWorstP[3,2]: z - 0.0124987501249875 cashProportion[2]
   + 0.0124987501249875 cashProportion[3] - 0.0661017231610172 x[2,1]
   - 0.0216561677165617 x[2,2] - 0.03997100289971 x[2,3]
   - 0.0556527680565277 x[2,4] - 0.0795253807952538 x[2,5]
   - 0.0201896477018965 x[2,6] - 0.036354697863547 x[2,7]
   - 0.0204146252041463 x[2,8] - 0.0752674732526747 x[2,9]
   - 0.0478702129787021 x[2,10] - 0.0472536079725361 x[2,11]
   - 0.0196313701963137 x[2,12] - 0.0472952704729527 x[2,13]
   - 0.0621937806219378 x[2,14] - 0.0780505282805053 x[2,15]
   - 0.0754257907542579 x[2,16] - 0.0591524180915242 x[2,17]
   - 0.0354964503549645 x[2,18] - 0.0617521581175216 x[2,19]
   - 0.0382461753824618 x[2,20] + 0.0661017231610172 x[3,1]
   + 0.0216561677165617 x[3,2] + 0.03997100289971 x[3,3]
   + 0.0556527680565277 x[3,4] + 0.0795253807952538 x[3,5]
   + 0.0201896477018965 x[3,6] + 0.036354697863547 x[3,7]
   + 0.0204146252041463 x[3,8] + 0.0752674732526747 x[3,9]
   + 0.0478702129787021 x[3,10] + 0.0472536079725361 x[3,11]
   + 0.0196313701963137 x[3,12] + 0.0472952704729527 x[3,13]
   + 0.0621937806219378 x[3,14] + 0.0780505282805053 x[3,15]
   + 0.0754257907542579 x[3,16] + 0.0591524180915242 x[3,17]
   + 0.0354964503549645 x[3,18] + 0.0617521581175216 x[3,19]
   + 0.0382461753824618 x[3,20] >= 0
Bounds
 z <= 1
 -infinity <= cashProportion[1] <= 1
 -infinity <= cashProportion[2] <= 1
 -infinity <= cashProportion[3] <= 1
Binaries
 x[1,1] x[1,2] x[1,3] x[1,4] x[1,5] x[1,6] x[1,7] x[1,8] x[1,9] x[1,10]
 x[1,11] x[1,12] x[1,13] x[1,14] x[1,15] x[1,16] x[1,17] x[1,18] x[1,19]
 x[1,20] x[2,1] x[2,2] x[2,3] x[2,4] x[2,5] x[2,6] x[2,7] x[2,8] x[2,9]
 x[2,10] x[2,11] x[2,12] x[2,13] x[2,14] x[2,15] x[2,16] x[2,17] x[2,18]
 x[2,19] x[2,20] x[3,1] x[3,2] x[3,3] x[3,4] x[3,5] x[3,6] x[3,7] x[3,8]
 x[3,9] x[3,10] x[3,11] x[3,12] x[3,13] x[3,14] x[3,15] x[3,16] x[3,17]
 x[3,18] x[3,19] x[3,20]
End
