data/mps_files/pEFS/60_2.mps
NAME foo
ROWS
 N  OBJ
 E  allocateEach[1]
 E  allocateEach[2]
 E  allocateEach[3]
 E  allocateEach[4]
 E  allocateEach[5]
 E  allocateEach[6]
 E  allocateEach[7]
 E  allocateEach[8]
 E  allocateEach[9]
 E  allocateEach[10]
 E  allocateEach[11]
 E  allocateEach[12]
 E  allocateEach[13]
 E  allocateEach[14]
 E  allocateEach[15]
 E  allocateEach[16]
 E  allocateEach[17]
 E  allocateEach[18]
 E  allocateEach[19]
 E  allocateEach[20]
 E  allocateAllCash
 G  findWorstP[1,2]
 G  findWorstP[1,3]
 G  findWorstP[2,1]
 G  findWorstP[2,3]
 G  findWorstP[3,1]
 G  findWorstP[3,2]
COLUMNS
    z         OBJ       1
    z         findWorstP[1,2]  1
    z         findWorstP[1,3]  1
    z         findWorstP[2,1]  1
    z         findWorstP[2,3]  1
    z         findWorstP[3,1]  1
    z         findWorstP[3,2]  1
    cashProportion[1]  allocateAllCash  1
    cashProportion[1]  findWorstP[1,2]  1.5471733143546742e-02
    cashProportion[1]  findWorstP[1,3]  1.5471733143546742e-02
    cashProportion[1]  findWorstP[2,1]  -1.6640965619765028e-02
    cashProportion[1]  findWorstP[3,1]  -1.2498750124987504e-02
    cashProportion[2]  allocateAllCash  1
    cashProportion[2]  findWorstP[1,2]  -1.5471733143546742e-02
    cashProportion[2]  findWorstP[2,1]  1.6640965619765028e-02
    cashProportion[2]  findWorstP[2,3]  1.6640965619765028e-02
    cashProportion[2]  findWorstP[3,2]  -1.2498750124987504e-02
    cashProportion[3]  allocateAllCash  1
    cashProportion[3]  findWorstP[1,3]  -1.5471733143546742e-02
    cashProportion[3]  findWorstP[2,3]  -1.6640965619765028e-02
    cashProportion[3]  findWorstP[3,1]  1.2498750124987504e-02
    cashProportion[3]  findWorstP[3,2]  1.2498750124987504e-02
    MARKER    'MARKER'                 'INTORG'
    x[1,1]    allocateEach[1]  1
    x[1,1]    findWorstP[1,2]  3.2459696135161059e-02
    x[1,1]    findWorstP[1,3]  3.2459696135161059e-02
    x[1,1]    findWorstP[2,1]  -4.8292082228558110e-02
    x[1,1]    findWorstP[3,1]  -6.6101723161017242e-02
    x[1,2]    allocateEach[2]  1
    x[1,2]    findWorstP[1,2]  1.0159771430929027e-02
    x[1,2]    findWorstP[1,3]  1.0159771430929027e-02
    x[1,2]    findWorstP[2,1]  -8.8751816638746810e-05
    x[1,2]    findWorstP[3,1]  -2.1656167716561682e-02
    x[1,3]    allocateEach[3]  1
    x[1,3]    findWorstP[1,2]  2.0298913884333324e-02
    x[1,3]    findWorstP[1,3]  2.0298913884333324e-02
    x[1,3]    findWorstP[2,1]  -0.0916695326107456
    x[1,3]    findWorstP[3,1]  -3.9971002899710034e-02
    x[1,4]    allocateEach[4]  1
    x[1,4]    findWorstP[1,2]  8.6146610143268257e-02
    x[1,4]    findWorstP[1,3]  8.6146610143268257e-02
    x[1,4]    findWorstP[2,1]  -6.8782657895028777e-03
    x[1,4]    findWorstP[3,1]  -5.5652768056527691e-02
    x[1,5]    allocateEach[5]  1
    x[1,5]    findWorstP[1,2]  1.0042186259038070e-01
    x[1,5]    findWorstP[1,3]  1.0042186259038070e-01
    x[1,5]    findWorstP[2,1]  -5.5791610734532211e-02
    x[1,5]    findWorstP[3,1]  -7.9525380795253828e-02
    x[1,6]    allocateEach[6]  1
    x[1,6]    findWorstP[1,2]  8.6775793957772490e-02
    x[1,6]    findWorstP[1,3]  8.6775793957772490e-02
    x[1,6]    findWorstP[2,1]  -8.8663064822108062e-02
    x[1,6]    findWorstP[3,1]  -2.0189647701896480e-02
    x[1,7]    allocateEach[7]  1
    x[1,7]    findWorstP[1,2]  5.4718362884343633e-02
    x[1,7]    findWorstP[1,3]  5.4718362884343633e-02
    x[1,7]    findWorstP[2,1]  -2.6292725679228739e-03
    x[1,7]    findWorstP[3,1]  -3.6354697863546989e-02
    x[1,8]    allocateEach[8]  1
    x[1,8]    findWorstP[1,2]  8.2216789924807382e-02
    x[1,8]    findWorstP[1,3]  8.2216789924807382e-02
    x[1,8]    findWorstP[2,1]  -9.0970612054715487e-04
    x[1,8]    findWorstP[3,1]  -2.0414625204146254e-02
    x[1,9]    allocateEach[9]  1
    x[1,9]    findWorstP[1,2]  4.3423997689554517e-03
    x[1,9]    findWorstP[1,3]  4.3423997689554517e-03
    x[1,9]    findWorstP[2,1]  -8.2150900276240016e-02
    x[1,9]    findWorstP[3,1]  -7.5267473252674744e-02
    x[1,10]   allocateEach[10]  1
    x[1,10]   findWorstP[1,2]  5.0912316531031135e-02
    x[1,10]   findWorstP[1,3]  5.0912316531031135e-02
    x[1,10]   findWorstP[2,1]  -1.1052929364647930e-01
    x[1,10]   findWorstP[3,1]  -4.7870212978702135e-02
    x[1,11]   allocateEach[11]  1
    x[1,11]   findWorstP[1,2]  0.0714897216119483
    x[1,11]   findWorstP[1,3]  0.0714897216119483
    x[1,11]   findWorstP[2,1]  -3.5167907343103422e-03
    x[1,11]   findWorstP[3,1]  -4.7253607972536089e-02
    x[1,12]   allocateEach[12]  1
    x[1,12]   findWorstP[1,2]  4.0298707594558072e-02
    x[1,12]   findWorstP[1,3]  4.0298707594558072e-02
    x[1,12]   findWorstP[2,1]  -0.0978599718212982
    x[1,12]   findWorstP[3,1]  -1.9631370196313704e-02
    x[1,13]   allocateEach[13]  1
    x[1,13]   findWorstP[1,2]  3.9607636847479649e-03
    x[1,13]   findWorstP[1,3]  3.9607636847479649e-03
    x[1,13]   findWorstP[2,1]  -7.0945983425598227e-02
    x[1,13]   findWorstP[3,1]  -4.7295270472952712e-02
    x[1,14]   allocateEach[14]  1
    x[1,14]   findWorstP[1,2]  6.3949830326659853e-04
    x[1,14]   findWorstP[1,3]  6.3949830326659853e-04
    x[1,14]   findWorstP[2,1]  -2.8511521095197414e-03
    x[1,14]   findWorstP[3,1]  -6.2193780621937811e-02
    x[1,15]   allocateEach[15]  1
    x[1,15]   findWorstP[1,2]  9.5821600602366136e-03
    x[1,15]   findWorstP[1,3]  9.5821600602366136e-03
    x[1,15]   findWorstP[2,1]  -0.0837595269528173
    x[1,15]   findWorstP[3,1]  -0.0780505282805053
    x[1,16]   allocateEach[16]  1
    x[1,16]   findWorstP[1,2]  9.7967014264937952e-02
    x[1,16]   findWorstP[1,3]  9.7967014264937952e-02
    x[1,16]   findWorstP[2,1]  -5.2496699541818737e-02
    x[1,16]   findWorstP[3,1]  -7.5425790754257913e-02
    x[1,17]   allocateEach[17]  1
    x[1,17]   findWorstP[1,2]  1.7328341120772351e-02
    x[1,17]   findWorstP[1,3]  1.7328341120772351e-02
    x[1,17]   findWorstP[2,1]  -0.0733422824748444
    x[1,17]   findWorstP[3,1]  -5.9152418091524189e-02
    x[1,18]   allocateEach[18]  1
    x[1,18]   findWorstP[1,2]  7.4790358015904931e-02
    x[1,18]   findWorstP[1,3]  7.4790358015904931e-02
    x[1,18]   findWorstP[2,1]  -3.8562664329535493e-02
    x[1,18]   findWorstP[3,1]  -3.5496450354964508e-02
    x[1,19]   allocateEach[19]  1
    x[1,19]   findWorstP[1,2]  5.1593072789347195e-02
    x[1,19]   findWorstP[1,3]  5.1593072789347195e-02
    x[1,19]   findWorstP[2,1]  -1.8759915242015104e-02
    x[1,19]   findWorstP[3,1]  -6.1752158117521591e-02
    x[1,20]   allocateEach[20]  1
    x[1,20]   findWorstP[1,2]  0.0884261121597508
    x[1,20]   findWorstP[1,3]  0.0884261121597508
    x[1,20]   findWorstP[2,1]  -5.3661567135202287e-02
    x[1,20]   findWorstP[3,1]  -3.8246175382461764e-02
    x[2,1]    allocateEach[1]  1
    x[2,1]    findWorstP[1,2]  -3.2459696135161059e-02
    x[2,1]    findWorstP[2,1]  4.8292082228558110e-02
    x[2,1]    findWorstP[2,3]  4.8292082228558110e-02
    x[2,1]    findWorstP[3,2]  -6.6101723161017242e-02
    x[2,2]    allocateEach[2]  1
    x[2,2]    findWorstP[1,2]  -1.0159771430929027e-02
    x[2,2]    findWorstP[2,1]  8.8751816638746810e-05
    x[2,2]    findWorstP[2,3]  8.8751816638746810e-05
    x[2,2]    findWorstP[3,2]  -2.1656167716561682e-02
    x[2,3]    allocateEach[3]  1
    x[2,3]    findWorstP[1,2]  -2.0298913884333324e-02
    x[2,3]    findWorstP[2,1]  0.0916695326107456
    x[2,3]    findWorstP[2,3]  0.0916695326107456
    x[2,3]    findWorstP[3,2]  -3.9971002899710034e-02
    x[2,4]    allocateEach[4]  1
    x[2,4]    findWorstP[1,2]  -8.6146610143268257e-02
    x[2,4]    findWorstP[2,1]  6.8782657895028777e-03
    x[2,4]    findWorstP[2,3]  6.8782657895028777e-03
    x[2,4]    findWorstP[3,2]  -5.5652768056527691e-02
    x[2,5]    allocateEach[5]  1
    x[2,5]    findWorstP[1,2]  -1.0042186259038070e-01
    x[2,5]    findWorstP[2,1]  5.5791610734532211e-02
    x[2,5]    findWorstP[2,3]  5.5791610734532211e-02
    x[2,5]    findWorstP[3,2]  -7.9525380795253828e-02
    x[2,6]    allocateEach[6]  1
    x[2,6]    findWorstP[1,2]  -8.6775793957772490e-02
    x[2,6]    findWorstP[2,1]  8.8663064822108062e-02
    x[2,6]    findWorstP[2,3]  8.8663064822108062e-02
    x[2,6]    findWorstP[3,2]  -2.0189647701896480e-02
    x[2,7]    allocateEach[7]  1
    x[2,7]    findWorstP[1,2]  -5.4718362884343633e-02
    x[2,7]    findWorstP[2,1]  2.6292725679228739e-03
    x[2,7]    findWorstP[2,3]  2.6292725679228739e-03
    x[2,7]    findWorstP[3,2]  -3.6354697863546989e-02
    x[2,8]    allocateEach[8]  1
    x[2,8]    findWorstP[1,2]  -8.2216789924807382e-02
    x[2,8]    findWorstP[2,1]  9.0970612054715487e-04
    x[2,8]    findWorstP[2,3]  9.0970612054715487e-04
    x[2,8]    findWorstP[3,2]  -2.0414625204146254e-02
    x[2,9]    allocateEach[9]  1
    x[2,9]    findWorstP[1,2]  -4.3423997689554517e-03
    x[2,9]    findWorstP[2,1]  8.2150900276240016e-02
    x[2,9]    findWorstP[2,3]  8.2150900276240016e-02
    x[2,9]    findWorstP[3,2]  -7.5267473252674744e-02
    x[2,10]   allocateEach[10]  1
    x[2,10]   findWorstP[1,2]  -5.0912316531031135e-02
    x[2,10]   findWorstP[2,1]  1.1052929364647930e-01
    x[2,10]   findWorstP[2,3]  1.1052929364647930e-01
    x[2,10]   findWorstP[3,2]  -4.7870212978702135e-02
    x[2,11]   allocateEach[11]  1
    x[2,11]   findWorstP[1,2]  -0.0714897216119483
    x[2,11]   findWorstP[2,1]  3.5167907343103422e-03
    x[2,11]   findWorstP[2,3]  3.5167907343103422e-03
    x[2,11]   findWorstP[3,2]  -4.7253607972536089e-02
    x[2,12]   allocateEach[12]  1
    x[2,12]   findWorstP[1,2]  -4.0298707594558072e-02
    x[2,12]   findWorstP[2,1]  0.0978599718212982
    x[2,12]   findWorstP[2,3]  0.0978599718212982
    x[2,12]   findWorstP[3,2]  -1.9631370196313704e-02
    x[2,13]   allocateEach[13]  1
    x[2,13]   findWorstP[1,2]  -3.9607636847479649e-03
    x[2,13]   findWorstP[2,1]  7.0945983425598227e-02
    x[2,13]   findWorstP[2,3]  7.0945983425598227e-02
    x[2,13]   findWorstP[3,2]  -4.7295270472952712e-02
    x[2,14]   allocateEach[14]  1
    x[2,14]   findWorstP[1,2]  -6.3949830326659853e-04
    x[2,14]   findWorstP[2,1]  2.8511521095197414e-03
    x[2,14]   findWorstP[2,3]  2.8511521095197414e-03
    x[2,14]   findWorstP[3,2]  -6.2193780621937811e-02
    x[2,15]   allocateEach[15]  1
    x[2,15]   findWorstP[1,2]  -9.5821600602366136e-03
    x[2,15]   findWorstP[2,1]  0.0837595269528173
    x[2,15]   findWorstP[2,3]  0.0837595269528173
    x[2,15]   findWorstP[3,2]  -0.0780505282805053
    x[2,16]   allocateEach[16]  1
    x[2,16]   findWorstP[1,2]  -9.7967014264937952e-02
    x[2,16]   findWorstP[2,1]  5.2496699541818737e-02
    x[2,16]   findWorstP[2,3]  5.2496699541818737e-02
    x[2,16]   findWorstP[3,2]  -7.5425790754257913e-02
    x[2,17]   allocateEach[17]  1
    x[2,17]   findWorstP[1,2]  -1.7328341120772351e-02
    x[2,17]   findWorstP[2,1]  0.0733422824748444
    x[2,17]   findWorstP[2,3]  0.0733422824748444
    x[2,17]   findWorstP[3,2]  -5.9152418091524189e-02
    x[2,18]   allocateEach[18]  1
    x[2,18]   findWorstP[1,2]  -7.4790358015904931e-02
    x[2,18]   findWorstP[2,1]  3.8562664329535493e-02
    x[2,18]   findWorstP[2,3]  3.8562664329535493e-02
    x[2,18]   findWorstP[3,2]  -3.5496450354964508e-02
    x[2,19]   allocateEach[19]  1
    x[2,19]   findWorstP[1,2]  -5.1593072789347195e-02
    x[2,19]   findWorstP[2,1]  1.8759915242015104e-02
    x[2,19]   findWorstP[2,3]  1.8759915242015104e-02
    x[2,19]   findWorstP[3,2]  -6.1752158117521591e-02
    x[2,20]   allocateEach[20]  1
    x[2,20]   findWorstP[1,2]  -0.0884261121597508
    x[2,20]   findWorstP[2,1]  5.3661567135202287e-02
    x[2,20]   findWorstP[2,3]  5.3661567135202287e-02
    x[2,20]   findWorstP[3,2]  -3.8246175382461764e-02
    x[3,1]    allocateEach[1]  1
    x[3,1]    findWorstP[1,3]  -3.2459696135161059e-02
    x[3,1]    findWorstP[2,3]  -4.8292082228558110e-02
    x[3,1]    findWorstP[3,1]  6.6101723161017242e-02
    x[3,1]    findWorstP[3,2]  6.6101723161017242e-02
    x[3,2]    allocateEach[2]  1
    x[3,2]    findWorstP[1,3]  -1.0159771430929027e-02
    x[3,2]    findWorstP[2,3]  -8.8751816638746810e-05
    x[3,2]    findWorstP[3,1]  2.1656167716561682e-02
    x[3,2]    findWorstP[3,2]  2.1656167716561682e-02
    x[3,3]    allocateEach[3]  1
    x[3,3]    findWorstP[1,3]  -2.0298913884333324e-02
    x[3,3]    findWorstP[2,3]  -0.0916695326107456
    x[3,3]    findWorstP[3,1]  3.9971002899710034e-02
    x[3,3]    findWorstP[3,2]  3.9971002899710034e-02
    x[3,4]    allocateEach[4]  1
    x[3,4]    findWorstP[1,3]  -8.6146610143268257e-02
    x[3,4]    findWorstP[2,3]  -6.8782657895028777e-03
    x[3,4]    findWorstP[3,1]  5.5652768056527691e-02
    x[3,4]    findWorstP[3,2]  5.5652768056527691e-02
    x[3,5]    allocateEach[5]  1
    x[3,5]    findWorstP[1,3]  -1.0042186259038070e-01
    x[3,5]    findWorstP[2,3]  -5.5791610734532211e-02
    x[3,5]    findWorstP[3,1]  7.9525380795253828e-02
    x[3,5]    findWorstP[3,2]  7.9525380795253828e-02
    x[3,6]    allocateEach[6]  1
    x[3,6]    findWorstP[1,3]  -8.6775793957772490e-02
    x[3,6]    findWorstP[2,3]  -8.8663064822108062e-02
    x[3,6]    findWorstP[3,1]  2.0189647701896480e-02
    x[3,6]    findWorstP[3,2]  2.0189647701896480e-02
    x[3,7]    allocateEach[7]  1
    x[3,7]    findWorstP[1,3]  -5.4718362884343633e-02
    x[3,7]    findWorstP[2,3]  -2.6292725679228739e-03
    x[3,7]    findWorstP[3,1]  3.6354697863546989e-02
    x[3,7]    findWorstP[3,2]  3.6354697863546989e-02
    x[3,8]    allocateEach[8]  1
    x[3,8]    findWorstP[1,3]  -8.2216789924807382e-02
    x[3,8]    findWorstP[2,3]  -9.0970612054715487e-04
    x[3,8]    findWorstP[3,1]  2.0414625204146254e-02
    x[3,8]    findWorstP[3,2]  2.0414625204146254e-02
    x[3,9]    allocateEach[9]  1
    x[3,9]    findWorstP[1,3]  -4.3423997689554517e-03
    x[3,9]    findWorstP[2,3]  -8.2150900276240016e-02
    x[3,9]    findWorstP[3,1]  7.5267473252674744e-02
    x[3,9]    findWorstP[3,2]  7.5267473252674744e-02
    x[3,10]   allocateEach[10]  1
    x[3,10]   findWorstP[1,3]  -5.0912316531031135e-02
    x[3,10]   findWorstP[2,3]  -1.1052929364647930e-01
    x[3,10]   findWorstP[3,1]  4.7870212978702135e-02
    x[3,10]   findWorstP[3,2]  4.7870212978702135e-02
    x[3,11]   allocateEach[11]  1
    x[3,11]   findWorstP[1,3]  -0.0714897216119483
    x[3,11]   findWorstP[2,3]  -3.5167907343103422e-03
    x[3,11]   findWorstP[3,1]  4.7253607972536089e-02
    x[3,11]   findWorstP[3,2]  4.7253607972536089e-02
    x[3,12]   allocateEach[12]  1
    x[3,12]   findWorstP[1,3]  -4.0298707594558072e-02
    x[3,12]   findWorstP[2,3]  -0.0978599718212982
    x[3,12]   findWorstP[3,1]  1.9631370196313704e-02
    x[3,12]   findWorstP[3,2]  1.9631370196313704e-02
    x[3,13]   allocateEach[13]  1
    x[3,13]   findWorstP[1,3]  -3.9607636847479649e-03
    x[3,13]   findWorstP[2,3]  -7.0945983425598227e-02
    x[3,13]   findWorstP[3,1]  4.7295270472952712e-02
    x[3,13]   findWorstP[3,2]  4.7295270472952712e-02
    x[3,14]   allocateEach[14]  1
    x[3,14]   findWorstP[1,3]  -6.3949830326659853e-04
    x[3,14]   findWorstP[2,3]  -2.8511521095197414e-03
    x[3,14]   findWorstP[3,1]  6.2193780621937811e-02
    x[3,14]   findWorstP[3,2]  6.2193780621937811e-02
    x[3,15]   allocateEach[15]  1
    x[3,15]   findWorstP[1,3]  -9.5821600602366136e-03
    x[3,15]   findWorstP[2,3]  -0.0837595269528173
    x[3,15]   findWorstP[3,1]  0.0780505282805053
    x[3,15]   findWorstP[3,2]  0.0780505282805053
    x[3,16]   allocateEach[16]  1
    x[3,16]   findWorstP[1,3]  -9.7967014264937952e-02
    x[3,16]   findWorstP[2,3]  -5.2496699541818737e-02
    x[3,16]   findWorstP[3,1]  7.5425790754257913e-02
    x[3,16]   findWorstP[3,2]  7.5425790754257913e-02
    x[3,17]   allocateEach[17]  1
    x[3,17]   findWorstP[1,3]  -1.7328341120772351e-02
    x[3,17]   findWorstP[2,3]  -0.0733422824748444
    x[3,17]   findWorstP[3,1]  5.9152418091524189e-02
    x[3,17]   findWorstP[3,2]  5.9152418091524189e-02
    x[3,18]   allocateEach[18]  1
    x[3,18]   findWorstP[1,3]  -7.4790358015904931e-02
    x[3,18]   findWorstP[2,3]  -3.8562664329535493e-02
    x[3,18]   findWorstP[3,1]  3.5496450354964508e-02
    x[3,18]   findWorstP[3,2]  3.5496450354964508e-02
    x[3,19]   allocateEach[19]  1
    x[3,19]   findWorstP[1,3]  -5.1593072789347195e-02
    x[3,19]   findWorstP[2,3]  -1.8759915242015104e-02
    x[3,19]   findWorstP[3,1]  6.1752158117521591e-02
    x[3,19]   findWorstP[3,2]  6.1752158117521591e-02
    x[3,20]   allocateEach[20]  1
    x[3,20]   findWorstP[1,3]  -0.0884261121597508
    x[3,20]   findWorstP[2,3]  -5.3661567135202287e-02
    x[3,20]   findWorstP[3,1]  3.8246175382461764e-02
    x[3,20]   findWorstP[3,2]  3.8246175382461764e-02
    MARKER    'MARKER'                 'INTEND'
RHS
    RHS1      allocateEach[1]  1
    RHS1      allocateEach[2]  1
    RHS1      allocateEach[3]  1
    RHS1      allocateEach[4]  1
    RHS1      allocateEach[5]  1
    RHS1      allocateEach[6]  1
    RHS1      allocateEach[7]  1
    RHS1      allocateEach[8]  1
    RHS1      allocateEach[9]  1
    RHS1      allocateEach[10]  1
    RHS1      allocateEach[11]  1
    RHS1      allocateEach[12]  1
    RHS1      allocateEach[13]  1
    RHS1      allocateEach[14]  1
    RHS1      allocateEach[15]  1
    RHS1      allocateEach[16]  1
    RHS1      allocateEach[17]  1
    RHS1      allocateEach[18]  1
    RHS1      allocateEach[19]  1
    RHS1      allocateEach[20]  1
    RHS1      allocateAllCash  1
BOUNDS
 UP BND1      z         1
 MI BND1      cashProportion[1]
 UP BND1      cashProportion[1]  1
 MI BND1      cashProportion[2]
 UP BND1      cashProportion[2]  1
 MI BND1      cashProportion[3]
 UP BND1      cashProportion[3]  1
 BV BND1      x[1,1]  
 BV BND1      x[1,2]  
 BV BND1      x[1,3]  
 BV BND1      x[1,4]  
 BV BND1      x[1,5]  
 BV BND1      x[1,6]  
 BV BND1      x[1,7]  
 BV BND1      x[1,8]  
 BV BND1      x[1,9]  
 BV BND1      x[1,10] 
 BV BND1      x[1,11] 
 BV BND1      x[1,12] 
 BV BND1      x[1,13] 
 BV BND1      x[1,14] 
 BV BND1      x[1,15] 
 BV BND1      x[1,16] 
 BV BND1      x[1,17] 
 BV BND1      x[1,18] 
 BV BND1      x[1,19] 
 BV BND1      x[1,20] 
 BV BND1      x[2,1]  
 BV BND1      x[2,2]  
 BV BND1      x[2,3]  
 BV BND1      x[2,4]  
 BV BND1      x[2,5]  
 BV BND1      x[2,6]  
 BV BND1      x[2,7]  
 BV BND1      x[2,8]  
 BV BND1      x[2,9]  
 BV BND1      x[2,10] 
 BV BND1      x[2,11] 
 BV BND1      x[2,12] 
 BV BND1      x[2,13] 
 BV BND1      x[2,14] 
 BV BND1      x[2,15] 
 BV BND1      x[2,16] 
 BV BND1      x[2,17] 
 BV BND1      x[2,18] 
 BV BND1      x[2,19] 
 BV BND1      x[2,20] 
 BV BND1      x[3,1]  
 BV BND1      x[3,2]  
 BV BND1      x[3,3]  
 BV BND1      x[3,4]  
 BV BND1      x[3,5]  
 BV BND1      x[3,6]  
 BV BND1      x[3,7]  
 BV BND1      x[3,8]  
 BV BND1      x[3,9]  
 BV BND1      x[3,10] 
 BV BND1      x[3,11] 
 BV BND1      x[3,12] 
 BV BND1      x[3,13] 
 BV BND1      x[3,14] 
 BV BND1      x[3,15] 
 BV BND1      x[3,16] 
 BV BND1      x[3,17] 
 BV BND1      x[3,18] 
 BV BND1      x[3,19] 
 BV BND1      x[3,20] 
ENDATA
